c Result of efficient AIG-to-CNF conversion using package CNF
p cnf 25 71
2 22 26 3 -14 0
-2 14 0
-2 -3 0
-2 -22 0
-2 -26 0
3 17 -24 -4 0
3 -24 -4 10 0
-3 24 0
-3 4 0
-3 -17 -10 0
-4 -5 8 0
-4 6 7 8 0
4 -8 0
4 5 -7 0
4 5 -6 0
5 -18 -20 -23 -25 0
-5 25 0
-5 18 0
-5 23 0
-5 20 0
-6 23 25 0
6 -23 0
6 -25 0
-7 18 21 0
7 -18 0
7 -21 0
-8 17 19 0
-8 19 21 9 0
8 -19 0
8 -17 -9 0
8 -17 -21 0
9 -20 23 0
-9 20 0
-9 -23 0
-10 11 13 0
-10 -20 -25 11 0
10 -11 0
10 20 -13 0
10 25 -13 0
11 -18 21 -12 0
11 -21 25 -12 0
-11 12 0
-11 -21 -25 0
-11 18 21 0
12 -20 23 -25 0
12 -19 -20 23 0
-12 20 0
-12 -23 0
-12 19 25 0
13 18 -19 -21 -23 0
-13 -18 0
-13 23 0
-13 21 0
-13 19 0
-14 24 -15 0
-14 20 24 0
-14 -17 24 0
14 -24 0
14 17 -20 15 0
15 -6 16 0
15 -19 16 0
15 -21 16 0
-15 -16 0
-15 19 21 6 0
16 -18 -21 -23 -25 0
-16 25 0
-16 18 0
-16 23 0
-16 21 0
-27 0
2 0

